6 40 4 10
12 14 3 17 20 13 9 17 3 13 2 8 3 3 14 6 13 14 16 18 13 7 13 20 9 11 13 12 17 16 2 8 16 13 2 3 20 18 1 17 
8.13 4.86 0.29 7.1 5.06 0.08 11.31 1.6 4.4 9.38 8.4 1.94 5.04 10.99 11.71 6.31 7.94 7.98 11.15 13.69 8.5 7.37 13.99 7.03 0.32 12.22 11.67 8.77 13.6 7.07 9.96 13.2 12.95 0.61 1.53 6.25 3.08 15.87 14.85 7.06 
8.56 6.82 0.61 7.51 6.24 4.91 0.93 14.83 0.79 2.54 11.64 11.9 7.06 4.31 4.03 5.79 5.61 13.89 5.07 14.86 3.71 15.81 8.99 11.28 0.61 10.8 10.95 1.31 15.14 10.22 13.17 14.28 7.63 4.38 0.82 9.74 13.48 0.35 10.02 9.47 
10.94 6.67 13.93 1.93 5.27 10.03 3.64 15.08 10.66 1.1 0.38 1.92 5.61 4.15 9.69 15.24 0.44 15.56 2.56 0.15 11.72 0.73 6.81 15.69 12.58 8.47 5.33 1.85 1.58 0.64 9.44 13.73 7.1 4.56 5.73 12 0.8 1.35 15.23 14.64 
8.78 10.75 2.63 9.06 0.7 2.45 9.38 2.61 11.17 0.91 2.5 14.68 14.19 6.44 6.19 5.18 4.17 10.49 13.18 9.79 6.92 2 12.09 14.03 12.88 12.2 1.74 1.93 1.47 4.3 1.35 9.33 12.02 9.37 3.3 5.76 14.96 8.37 0.41 9.45 
8 8 8 8 8 8 8 8 8 8 8 8 8 8 8 8 8 8 8 8 8 8 8 8 8 8 8 8 8 8 8 8 8 8 8 8 8 8 8 8 
2.49 7.81 10.32 1.59 8.46 5.14 9.76 9.4 15.42 7.81 12.41 0.29 14.6 4.27 1.95 6.88 0.97 3.45 3.4 10.94 15.11 2.66 0.43 12.02 4.47 2.55 10.07 4.44 3.74 8.98 3.55 12.94 13.33 13.59 6.98 7.99 6.64 11.5 9.62 0.19 
1 1 1 1 1 1 1 1 1 1 1 1 1 1 1 1 1 1 1 1 1 1 1 1 1 1 1 1 1 1 1 1 1 1 1 1 1 1 1 1 
1 1 1 1 1 1 1 1 1 1 1 1 1 1 1 1 1 1 1 1 1 1 1 1 1 1 1 1 1 1 1 1 1 1 1 1 1 1 1 1 
1 1 1 1 1 1 1 1 1 1 1 1 1 1 1 1 1 1 1 1 1 1 1 1 1 1 1 1 1 1 1 1 1 1 1 1 1 1 1 1 
1 1 1 1 1 1 1 1 1 1 1 1 1 1 1 1 1 1 1 1 1 1 1 1 1 1 1 1 1 1 1 1 1 1 1 1 1 1 1 1 
1 1 1 1 1 1 1 1 1 1 1 1 1 1 1 1 1 1 1 1 1 1 1 1 1 1 1 1 1 1 1 1 1 1 1 1 1 1 1 1 
1 1 1 1 1 1 1 1 1 1 1 1 1 1 1 1 1 1 1 1 1 1 1 1 1 1 1 1 1 1 1 1 1 1 1 1 1 1 1 1 
0.01 0.01 0.01 0.01 0.01 0.01 0.01 0.01 0.01 0.01 0.01 0.01 0.01 0.01 0.01 0.01 0.01 0.01 0.01 0.01 0.01 0.01 0.01 0.01 0.01 0.01 0.01 0.01 0.01 0.01 0.01 0.01 0.01 0.01 0.01 0.01 0.01 0.01 0.01 0.01 
0.02 0.02 0.02 0.02 0.02 0.02 0.02 0.02 0.02 0.02 0.02 0.02 0.02 0.02 0.02 0.02 0.02 0.02 0.02 0.02 0.02 0.02 0.02 0.02 0.02 0.02 0.02 0.02 0.02 0.02 0.02 0.02 0.02 0.02 0.02 0.02 0.02 0.02 0.02 0.02 
0.03 0.03 0.03 0.03 0.03 0.03 0.03 0.03 0.03 0.03 0.03 0.03 0.03 0.03 0.03 0.03 0.03 0.03 0.03 0.03 0.03 0.03 0.03 0.03 0.03 0.03 0.03 0.03 0.03 0.03 0.03 0.03 0.03 0.03 0.03 0.03 0.03 0.03 0.03 0.03 
0.04 0.04 0.04 0.04 0.04 0.04 0.04 0.04 0.04 0.04 0.04 0.04 0.04 0.04 0.04 0.04 0.04 0.04 0.04 0.04 0.04 0.04 0.04 0.04 0.04 0.04 0.04 0.04 0.04 0.04 0.04 0.04 0.04 0.04 0.04 0.04 0.04 0.04 0.04 0.04 
0.05 0.05 0.05 0.05 0.05 0.05 0.05 0.05 0.05 0.05 0.05 0.05 0.05 0.05 0.05 0.05 0.05 0.05 0.05 0.05 0.05 0.05 0.05 0.05 0.05 0.05 0.05 0.05 0.05 0.05 0.05 0.05 0.05 0.05 0.05 0.05 0.05 0.05 0.05 0.05 
1 1 1 1 1 1 1 1 1 1 1 1 1 1 1 1 1 1 1 1 1 1 1 1 1 1 1 1 1 1 1 1 1 1 1 1 1 1 1 1 
